(set-info :source |printed by MathSAT|)
(declare-fun call__main_.call_hypothese.ok () Bool)
(declare-fun diff0 () Int)
(declare-fun nS () Int)
(declare-fun call__main_.call_controleur2.flby () Bool)
(declare-fun call__main_.call_hypothese.flby () Bool)
(declare-fun call__main_.call_controleur.flby2 () Bool)
(declare-fun call__main_.call_hypothese2.flby () Bool)
(declare-fun retard1 () Bool)
(declare-fun call__main_.nB1 () Int)
(declare-fun call__main_.call_hypothese.c () Int)
(declare-fun call__main_.call_controleur2.avance () Bool)
(declare-fun call__main_._H1_ () Bool)
(declare-fun avance1 () Bool)
(declare-fun call__main_.retard1 () Bool)
(declare-fun call__main_.call_hypothese2.ok () Bool)
(declare-fun avance0 () Bool)
(declare-fun call__main_.call_controleur.diff () Int)
(declare-fun call__main_.call_hypothese.flby2 () Int)
(declare-fun call__main_.call_controleur.flby () Bool)
(declare-fun call_Sofar.flby () Bool)
(declare-fun call__main_.flby2 () Int)
(declare-fun diff1 () Int)
(declare-fun nB1 () Int)
(declare-fun call__main_.flby3 () Int)
(declare-fun flby () Bool)
(declare-fun retard0 () Bool)
(declare-fun call__main_.nS () Int)
(declare-fun _OK_ () Bool)
(declare-fun call__main_.call_controleur2.flby2 () Bool)
(declare-fun call__main_.nB0 () Int)
(declare-fun call__main_._H0_ () Bool)
(declare-fun ast () Bool)
(declare-fun call__main_.call_hypothese2.c () Int)
(declare-fun flby2 () Bool)
(declare-fun call__main_.flby () Int)
(declare-fun nB0 () Int)
(declare-fun call__main_.ast () Bool)
(declare-fun call_Sofar.Sofar () Bool)
(declare-fun call__main_.call_controleur.avance () Bool)
(declare-fun call__main_.call_hypothese2.flby2 () Int)
(declare-fun call__main_.call_controleur2.diff () Int)
(declare-fun call__main_.avance0 () Bool)
(declare-fun call__main_.diff1 () Int)
(declare-fun call__main_.diff0 () Int)
(declare-fun pOK () Bool)
(declare-fun call__main_.call_controleur.retard () Bool)
(declare-fun call__main_.retard0 () Bool)
(declare-fun call__main_.call_controleur2.retard () Bool)
(declare-fun call__main_.avance1 () Bool)
(define-fun .def_672 () Bool (= call_Sofar.flby call_Sofar.Sofar))
(define-fun .def_670 () Bool (= call__main_.call_controleur2.flby2 call__main_.call_controleur2.retard))
(define-fun .def_668 () Bool (= call__main_.call_controleur2.flby call__main_.call_controleur2.avance))
(define-fun .def_663 () Int (* (- 1) call__main_.call_controleur2.diff))
(define-fun .def_651 () Int (* (- 1) call__main_.nS))
(define-fun .def_664 () Int (+ .def_651 .def_663))
(define-fun .def_665 () Int (+ call__main_.nB1 .def_664))
(define-fun .def_666 () Bool (= .def_665 0))
(define-fun .def_658 () Bool (= call__main_.call_controleur.flby2 call__main_.call_controleur.retard))
(define-fun .def_656 () Bool (= call__main_.call_controleur.flby call__main_.call_controleur.avance))
(define-fun .def_650 () Int (* (- 1) call__main_.call_controleur.diff))
(define-fun .def_652 () Int (+ .def_651 .def_650))
(define-fun .def_653 () Int (+ call__main_.nB0 .def_652))
(define-fun .def_654 () Bool (= .def_653 0))
(define-fun .def_645 () Bool (= call__main_.call_hypothese2.flby2 call__main_.call_hypothese2.c))
(define-fun .def_642 () Bool (= call__main_.call_hypothese2.flby call__main_.call_hypothese2.ok))
(define-fun .def_640 () Bool (= call__main_.call_hypothese.flby2 call__main_.call_hypothese.c))
(define-fun .def_637 () Bool (= call__main_.call_hypothese.flby call__main_.call_hypothese.ok))
(define-fun .def_635 () Bool (= call__main_._H1_ call__main_.call_hypothese2.ok))
(define-fun .def_632 () Bool (= call__main_._H0_ call__main_.call_hypothese.ok))
(define-fun .def_629 () Bool (= call__main_.retard1 call__main_.call_controleur2.retard))
(define-fun .def_626 () Bool (= call__main_.retard0 call__main_.call_controleur.retard))
(define-fun .def_623 () Bool (= call__main_.avance1 call__main_.call_controleur2.avance))
(define-fun .def_620 () Bool (= call__main_.avance0 call__main_.call_controleur.avance))
(define-fun .def_617 () Bool (= call__main_.diff1 call__main_.call_controleur2.diff))
(define-fun .def_614 () Bool (= call__main_.diff0 call__main_.call_controleur.diff))
(define-fun .def_611 () Bool (= call__main_.flby3 call__main_.nS))
(define-fun .def_609 () Bool (= call__main_.flby2 call__main_.nB1))
(define-fun .def_607 () Bool (= call__main_.flby call__main_.nB0))
(define-fun .def_604 () Bool (and call__main_._H0_ call__main_._H1_))
(define-fun .def_605 () Bool (= call__main_.ast .def_604))
(define-fun .def_600 () Bool (= ast call__main_.ast))
(define-fun .def_597 () Bool (= flby pOK))
(define-fun .def_594 () Bool (= retard1 call__main_.retard1))
(define-fun .def_590 () Bool (= retard0 call__main_.retard0))
(define-fun .def_586 () Bool (= avance1 call__main_.avance1))
(define-fun .def_582 () Bool (= avance0 call__main_.avance0))
(define-fun .def_578 () Bool (= diff1 call__main_.diff1))
(define-fun .def_574 () Bool (= diff0 call__main_.diff0))
(define-fun .def_571 () Bool (= nS call__main_.nS))
(define-fun .def_568 () Bool (= nB1 call__main_.nB1))
(define-fun .def_565 () Bool (= nB0 call__main_.nB0))
(define-fun .def_561 () Bool (not call_Sofar.Sofar))
(define-fun .def_562 () Bool (or flby2 .def_561))
(define-fun .def_563 () Bool (= _OK_ .def_562))
(define-fun .def_566 () Bool (and .def_563 .def_565))
(define-fun .def_569 () Bool (and .def_566 .def_568))
(define-fun .def_572 () Bool (and .def_569 .def_571))
(define-fun .def_575 () Bool (and .def_572 .def_574))
(define-fun .def_579 () Bool (and .def_575 .def_578))
(define-fun .def_583 () Bool (and .def_579 .def_582))
(define-fun .def_587 () Bool (and .def_583 .def_586))
(define-fun .def_591 () Bool (and .def_587 .def_590))
(define-fun .def_595 () Bool (and .def_591 .def_594))
(define-fun .def_598 () Bool (and .def_595 .def_597))
(define-fun .def_601 () Bool (and .def_598 .def_600))
(define-fun .def_606 () Bool (and .def_601 .def_605))
(define-fun .def_608 () Bool (and .def_606 .def_607))
(define-fun .def_610 () Bool (and .def_608 .def_609))
(define-fun .def_612 () Bool (and .def_610 .def_611))
(define-fun .def_615 () Bool (and .def_612 .def_614))
(define-fun .def_618 () Bool (and .def_615 .def_617))
(define-fun .def_621 () Bool (and .def_618 .def_620))
(define-fun .def_624 () Bool (and .def_621 .def_623))
(define-fun .def_627 () Bool (and .def_624 .def_626))
(define-fun .def_630 () Bool (and .def_627 .def_629))
(define-fun .def_633 () Bool (and .def_630 .def_632))
(define-fun .def_636 () Bool (and .def_633 .def_635))
(define-fun .def_638 () Bool (and .def_636 .def_637))
(define-fun .def_641 () Bool (and .def_638 .def_640))
(define-fun .def_643 () Bool (and .def_641 .def_642))
(define-fun .def_646 () Bool (and .def_643 .def_645))
(define-fun .def_655 () Bool (and .def_646 .def_654))
(define-fun .def_657 () Bool (and .def_655 .def_656))
(define-fun .def_659 () Bool (and .def_657 .def_658))
(define-fun .def_667 () Bool (and .def_659 .def_666))
(define-fun .def_669 () Bool (and .def_667 .def_668))
(define-fun .def_671 () Bool (and .def_669 .def_670))
(define-fun .def_673 () Bool (and .def_671 .def_672))
(define-fun .def_556 () Bool (not call__main_.call_controleur2.flby2))
(define-fun .def_553 () Bool (not call__main_.call_controleur2.flby))
(define-fun .def_550 () Bool (not call__main_.call_controleur.flby2))
(define-fun .def_547 () Bool (not call__main_.call_controleur.flby))
(define-fun .def_544 () Bool (= call__main_.call_hypothese2.flby2 0))
(define-fun .def_539 () Bool (= call__main_.call_hypothese.flby2 0))
(define-fun .def_534 () Bool (= call__main_.flby3 0))
(define-fun .def_531 () Bool (= call__main_.flby2 0))
(define-fun .def_528 () Bool (= call__main_.flby 0))
(define-fun .def_526 () Bool (and flby2 flby))
(define-fun .def_529 () Bool (and .def_526 .def_528))
(define-fun .def_532 () Bool (and .def_529 .def_531))
(define-fun .def_535 () Bool (and .def_532 .def_534))
(define-fun .def_537 () Bool (and .def_535 call__main_.call_hypothese.flby))
(define-fun .def_540 () Bool (and .def_537 .def_539))
(define-fun .def_542 () Bool (and .def_540 call__main_.call_hypothese2.flby))
(define-fun .def_545 () Bool (and .def_542 .def_544))
(define-fun .def_548 () Bool (and .def_545 .def_547))
(define-fun .def_551 () Bool (and .def_548 .def_550))
(define-fun .def_554 () Bool (and .def_551 .def_553))
(define-fun .def_557 () Bool (and .def_554 .def_556))
(define-fun .def_519 () Bool (<= 32767 diff0))
(define-fun .def_520 () Bool (not .def_519))
(define-fun .def_515 () Bool (<= 1 nS))
(define-fun .def_516 () Bool (not .def_515))
(define-fun .def_511 () Bool (<= 1 nB1))
(define-fun .def_512 () Bool (not .def_511))
(define-fun .def_506 () Bool (<= 1 nB0))
(define-fun .def_507 () Bool (not .def_506))
(define-fun .def_509 () Bool (and .def_507 ast))
(define-fun .def_513 () Bool (and .def_509 .def_512))
(define-fun .def_517 () Bool (and .def_513 .def_516))
(define-fun .def_521 () Bool (and .def_517 .def_520))
(define-fun .def_523 () Bool (= .def_521 call_Sofar.flby))
(define-fun .def_558 () Bool (and .def_523 .def_557))
(define-fun .def_674 () Bool (and .def_558 .def_673))
(assert .def_674)
